c This file was generated by genrmf.
c The parameters are: a: 4 b: 3 c1: 10 c2: 20
p max      48        176
n       1 s
n      48 t
a       1      20         18
a       1       2        320
a       1       5        320
a       2      27         18
a       2       3        320
a       2       1        320
a       2       6        320
a       3      17         13
a       3       4        320
a       3       2        320
a       3       7        320
a       4      18         16
a       4       3        320
a       4       8        320
a       5      24         14
a       5       6        320
a       5       9        320
a       5       1        320
a       6      29         16
a       6       7        320
a       6       5        320
a       6      10        320
a       6       2        320
a       7      22         19
a       7       8        320
a       7       6        320
a       7      11        320
a       7       3        320
a       8      32         12
a       8       7        320
a       8      12        320
a       8       4        320
a       9      19         10
a       9      10        320
a       9      13        320
a       9       5        320
a      10      23         16
a      10      11        320
a      10       9        320
a      10      14        320
a      10       6        320
a      11      21         14
a      11      12        320
a      11      10        320
a      11      15        320
a      11       7        320
a      12      25         13
a      12      11        320
a      12      16        320
a      12       8        320
a      13      28         12
a      13      14        320
a      13       9        320
a      14      31         11
a      14      15        320
a      14      13        320
a      14      10        320
a      15      26         13
a      15      16        320
a      15      14        320
a      15      11        320
a      16      30         13
a      16      15        320
a      16      12        320
a      17      34         20
a      17      18        320
a      17      21        320
a      18      43         20
a      18      19        320
a      18      17        320
a      18      22        320
a      19      33         16
a      19      20        320
a      19      18        320
a      19      23        320
a      20      41         15
a      20      19        320
a      20      24        320
a      21      42         10
a      21      22        320
a      21      25        320
a      21      17        320
a      22      45         12
a      22      23        320
a      22      21        320
a      22      26        320
a      22      18        320
a      23      38         14
a      23      24        320
a      23      22        320
a      23      27        320
a      23      19        320
a      24      46         17
a      24      23        320
a      24      28        320
a      24      20        320
a      25      37         10
a      25      26        320
a      25      29        320
a      25      21        320
a      26      40         10
a      26      27        320
a      26      25        320
a      26      30        320
a      26      22        320
a      27      39         16
a      27      28        320
a      27      26        320
a      27      31        320
a      27      23        320
a      28      48         14
a      28      27        320
a      28      32        320
a      28      24        320
a      29      47         20
a      29      30        320
a      29      25        320
a      30      36         13
a      30      31        320
a      30      29        320
a      30      26        320
a      31      35         20
a      31      32        320
a      31      30        320
a      31      27        320
a      32      44         20
a      32      31        320
a      32      28        320
a      33      34        320
a      33      37        320
a      34      35        320
a      34      33        320
a      34      38        320
a      35      36        320
a      35      34        320
a      35      39        320
a      36      35        320
a      36      40        320
a      37      38        320
a      37      41        320
a      37      33        320
a      38      39        320
a      38      37        320
a      38      42        320
a      38      34        320
a      39      40        320
a      39      38        320
a      39      43        320
a      39      35        320
a      40      39        320
a      40      44        320
a      40      36        320
a      41      42        320
a      41      45        320
a      41      37        320
a      42      43        320
a      42      41        320
a      42      46        320
a      42      38        320
a      43      44        320
a      43      42        320
a      43      47        320
a      43      39        320
a      44      43        320
a      44      48        320
a      44      40        320
a      45      46        320
a      45      41        320
a      46      47        320
a      46      45        320
a      46      42        320
a      47      48        320
a      47      46        320
a      47      43        320
a      48      47        320
a      48      44        320
